Minimize
  2 x(1) + 4 x(2) + 6 x(3) + 8 x(4) + 10 x(5) + 12 x(6) + 14 x(7) + 16 x(8)
   + 18 x(9) + 20 x(10) + 22 x(11) + 24 x(12) + 26 x(13) + 28 x(14)
   + 30 x(15) + 32 x(16) + 34 x(17) + 36 x(18) + 38 x(19) + 40 x(20) + [
   - x(1) ^ 2 - 2 x(2) ^ 2 - 3 x(3) ^ 2 - 4 x(4) ^ 2 - 5 x(5) ^ 2
   - 6 x(6) ^ 2 - 7 x(7) ^ 2 - 8 x(8) ^ 2 - 9 x(9) ^ 2 - 10 x(10) ^ 2
   - 11 x(11) ^ 2 - 12 x(12) ^ 2 - 13 x(13) ^ 2 - 14 x(14) ^ 2
   - 15 x(15) ^ 2 - 16 x(16) ^ 2 - 17 x(17) ^ 2 - 18 x(18) ^ 2
   - 19 x(19) ^ 2 - 20 x(20) ^ 2 ] / 2 
Subject To
 con1: x(1) + x(2) + x(3) + x(4) + x(5) + x(6) + x(7) + x(8) + x(9) + x(10)
   + x(11) + x(12) + x(13) + x(14) + x(15) + x(16) + x(17) + x(18) + x(19)
   + x(20) <= 40
 con2: - x(1) - x(2) - 9 x(3) + 3 x(4) + 5 x(5) + x(8) + 7 x(9) - 7 x(10)
   - 4 x(11) - 6 x(12) - 3 x(13) + 7 x(14) - 5 x(16) + x(17) + x(18)
   + 2 x(20) <= 9
 con3: 2 x(1) - x(2) - x(3) - 9 x(4) + 3 x(5) + 5 x(6) + x(9) + 7 x(10)
   - 7 x(11) - 4 x(12) - 6 x(13) - 3 x(14) + 7 x(15) - 5 x(17) + x(18)
   + x(19) <= 0
 con4: 2 x(2) - x(3) - x(4) - 9 x(5) + 3 x(6) + 5 x(7) + x(10) + 7 x(11)
   - 7 x(12) - 4 x(13) - 6 x(14) - 3 x(15) + 7 x(16) - 5 x(18) + x(19)
   + x(20) <= -1
 con5: x(1) + 2 x(3) - x(4) - x(5) - 9 x(6) + 3 x(7) + 5 x(8) + x(11)
   + 7 x(12) - 7 x(13) - 4 x(14) - 6 x(15) - 3 x(16) + 7 x(17) - 5 x(19)
   + x(20) <= 4
 con6: x(1) + x(2) + 2 x(4) - x(5) - x(6) - 9 x(7) + 3 x(8) + 5 x(9)
   + x(12) + 7 x(13) - 7 x(14) - 4 x(15) - 6 x(16) - 3 x(17) + 7 x(18)
   - 5 x(20) <= 5
 con7: - 5 x(1) + x(2) + x(3) + 2 x(5) - x(6) - x(7) - 9 x(8) + 3 x(9)
   + 5 x(10) + x(13) + 7 x(14) - 7 x(15) - 4 x(16) - 6 x(17) - 3 x(18)
   + 7 x(19) <= -3
 con8: - 5 x(2) + x(3) + x(4) + 2 x(6) - x(7) - x(8) - 9 x(9) + 3 x(10)
   + 5 x(11) + x(14) + 7 x(15) - 7 x(16) - 4 x(17) - 6 x(18) - 3 x(19)
   + 7 x(20) <= -1
 con9: 7 x(1) - 5 x(3) + x(4) + x(5) + 2 x(7) - x(8) - x(9) - 9 x(10)
   + 3 x(11) + 5 x(12) + x(15) + 7 x(16) - 7 x(17) - 4 x(18) - 6 x(19)
   - 3 x(20) <= 2
 con10: - 3 x(1) + 7 x(2) - 5 x(4) + x(5) + x(6) + 2 x(8) - x(9) - x(10)
   - 9 x(11) + 3 x(12) + 5 x(13) + x(16) + 7 x(17) - 7 x(18) - 4 x(19)
   - 6 x(20) <= -5
Bounds
x(1) <= 40
x(2) <= 40
x(3) <= 40
x(4) <= 40 
x(5) <= 40
x(6) <= 40
x(7) <= 40
x(8) <= 40
x(9) <= 40
x(10) <= 40
x(11) <= 40
x(12) <= 40
x(13) <= 40
x(14) <= 40
x(15) <= 40
x(16) <= 40
x(17) <= 40
x(18) <= 40
x(19) <= 40
x(20) <= 40
End
